8712
48, 37, 40, 39, 45, 19, 8, 10, 9, 41, 3, 17, 7, 2, 42, 21, 31, 18, 1, 22, 32, 49, 36, 35, 34, 44, 16, 29, 30, 23, 50, 20, 46, 25, 11, 52, 14, 13, 47, 26, 27, 28, 12, 51, 33, 43, 15, 4, 6, 5, 24, 38
